Route #1: 40 88 67 44
Route #2: 54 70 1
Route #3: 31 46 35
Route #4: 83 51 81
Route #5: 68 90 84 66
Route #6: 89 98 99 62 71
Route #7: 8 17
Route #8: 20 41 22 15
Route #9: 50 91 52
Route #10: 87 37 6 49 14
Route #11: 93 75
Route #12: 82 60 59
Route #13: 28 42 78 65 25
Route #14: 23 61 100
Route #15: 63 77 3
Route #16: 79 11 85 30
Route #17: 76 55 16 69
Route #18: 34 64 96 48 26 47 38
Route #19: 32 33 53 73 95 24
Route #20: 74 13 4
Route #21: 5 12 58
Route #22: 21 56 94 80
Route #23: 27 97 19
Route #24: 7 2 45 43 29 36 72 57
Route #25: 86 9 92
Route #26: 18 10 39
Cost 27591.0000
Time 16.0001